20 7
144 135 42 82 39 35 80
1 4 4 3 5 3 3 4 5 5 3 5 5 3 5 3 4 5 4 1
31 39 14 17 13 10 20
12 10 16 22 16 10 17
17 6 16 8 8 16 18
19 8 18 9 10 17 21
14 12 9 9 6 14 11
8 8 4 12 4 8 7
17 6 15 6 6 15 17
7 9 11 20 13 5 12
13 11 8 9 5 13 10
13 11 8 9 5 13 10
6 10 11 21 13 4 11
9 15 4 17 11 11 4
9 8 5 11 4 9 8
16 7 14 5 5 15 16
6 15 4 20 13 8 1
14 7 11 6 2 13 13
16 10 12 4 4 16 14
4 9 7 18 10 1 8
11 4 13 16 10 9 15
22 17 16 8 11 21 18
6 11 1 16 8 7 3
